\ LP format - for model browsing. Use MPS format to capture full model detail.
Minimize
  0 B30(0) + 0 B31(0) + 0 B34(0) + 0 B35(0) + 0 B38(0) + 0 B44(0) + 0 B45(0)
   + 0 B46(0) + 0 B51(0) + 0 B52(0) + 0 B54(0) + 0 B55(0) + 0 B58(0)
   + 0 B62(0) + 0 B64(0) + 0 B65(0) + 0 B68(0) + 0 B78(0) + 0 B79(0)
   + 0 B80(0) + 0 B83(0) + 0 B90(0) + 0 B92(0) + 0 B93(0) + 0 B94(0)
   + 0 B97(0) + 0 B99(0) + 0 B100(0) + 0 B101(0) + 0 B102(0) + 0 B105(0)
   + 0 B107(0) + 0 B108(0) + 0 B110(0) + 0 B112(0) + 0 B114(0) + 0 B115(0)
   + 0 B116(0) + 0 B117(0) + 0 B121(0) + 0 B126(0) + 0 B131(0) + 0 B134(0)
   + 0 B136(0) + 0 B139(0) + 0 B140(0) + 0 B142(0) + 0 B143(0) + 0 B149(0)
   + 0 B150(0) + 0 B152(0) + 0 B153(0) + 0 B157(0) + 0 B158(0) + 0 B159(0)
   + 0 B160(0) + 0 B161(0) + 0 B162(0) + 0 B166(0) + 0 B169(0) + 0 B170(0)
   + 0 B173(0) + 0 B174(0) + 0 B179(0) + 0 B181(0) + 0 B184(0) + 0 B185(0)
   + 0 B188(0) + 0 B190(0) + 0 B194(0) + 0 B199(0) + 0 B200(0) + 0 B201(0)
   + 0 B203(0) + 0 B206(0) + 0 B208(0) + 0 B214(0) + 0 B215(0) + 0 B218(0)
   + 0 B222(0) + 0 B226(0) + 0 B236(0) + 0 B238(0) + 0 B239(0) + 0 B240(0)
   + 0 B246(0) + 0 B247(0) + 0 B249(0) + 0 B250(0) + 0 B253(0) + 0 B254(0)
   + I285(1)
Subject To
 c0: B0(20) + B1(36) = 1
 c1: B2(21) + B3(25) = 1
 c2: B4(25) + B5(37) = 1
 c3: B6(25) + B7(37) = 1
 c4: B8(21) + B9(21) = 1
 c5: B10(21) + B11(21) = 1
 c6: B12(37) + B13(21) = 1
 c7: B14(21) + B15(37) = 1
 c8: B16(21) + B17(21) = 1
 c9: B18(37) + B19(21) = 1
 c10: B20(21) + B21(37) = 1
 c11: B22(25) + B23(21) = 1
 c12: B24(37) + B25(25) = 1
 c13: B26(37) + B27(21) = 1
 c14: B28(21) + B29(25) = 1
 c15: - 1000 B0(20) + I255(21) <= 0
 c16: - 1000 B1(36) + I256(37) <= 0
 c17: - 1000 B2(21) + I257(23) <= 0
 c18: - 1000 B3(25) + I258(27) <= 0
 c19: - 1000 B4(25) + I259(25) <= 0
 c20: - 1000 B5(37) + I260(37) <= 0
 c21: - 1000 B6(25) + I261(25) <= 0
 c22: - 1000 B7(37) + I262(37) <= 0
 c23: - 1000 B8(21) + I263(21) <= 0
 c24: - 1000 B9(21) + I264(21) <= 0
 c25: - 1000 B10(21) + I265(21) <= 0
 c26: - 1000 B11(21) + I266(21) <= 0
 c27: - 1000 B12(37) + I267(37) <= 0
 c28: - 1000 B13(21) + I268(21) <= 0
 c29: - 1000 B14(21) + I269(24) <= 0
 c30: - 1000 B15(37) + I270(40) <= 0
 c31: - 1000 B16(21) + I271(22) <= 0
 c32: - 1000 B17(21) + I272(22) <= 0
 c33: - 1000 B18(37) + I273(37) <= 0
 c34: - 1000 B19(21) + I274(21) <= 0
 c35: - 1000 B20(21) + I275(21) <= 0
 c36: - 1000 B21(37) + I276(37) <= 0
 c37: - 1000 B22(25) + I277(27) <= 0
 c38: - 1000 B23(21) + I278(23) <= 0
 c39: - 1000 B24(37) + I279(40) <= 0
 c40: - 1000 B25(25) + I280(28) <= 0
 c41: - 1000 B26(37) + I281(37) <= 0
 c42: - 1000 B27(21) + I282(21) <= 0
 c43: - 1000 B28(21) + I283(23) <= 0
 c44: - 1000 B29(25) + I284(27) <= 0
 c45: - 1000 B1(36) - 1000 B5(37) - 1000 B32(2) + I256(37) - I260(37)
   >= -2992
 c46: - 1000 B1(36) - 1000 B5(37) + 1000 B32(2) - I256(37) + I260(37)
   >= -1994
 c47: - 1000 B1(36) - 1000 B7(37) - 1000 B33(2) + I256(37) - I262(37)
   >= -2992
 c48: - 1000 B1(36) - 1000 B7(37) + 1000 B33(2) - I256(37) + I262(37)
   >= -1993
 c49: - 1000 B1(36) - 1000 B12(37) - 1000 B36(2) + I256(37) - I267(37)
   >= -2996
 c50: - 1000 B1(36) - 1000 B12(37) + 1000 B36(2) - I256(37) + I267(37)
   >= -1995
 c51: - 1000 B0(20) - 1000 B14(21) - 1000 B37(4) + I255(21) - I269(24)
   >= -2996
 c52: - 1000 B0(20) - 1000 B14(21) + 1000 B37(4) - I255(21) + I269(24)
   >= -1993
 c53: - 1000 B1(36) - 1000 B15(37) - 1000 B37(4) + I256(37) - I270(40)
   >= -2994
 c54: - 1000 B1(36) - 1000 B15(37) + 1000 B37(4) - I256(37) + I270(40)
   >= -1995
 c55: - 1000 B0(20) - 1000 B19(21) - 1000 B39(4) + I255(21) - I274(21)
   >= -2994
 c56: - 1000 B0(20) - 1000 B19(21) + 1000 B39(4) - I255(21) + I274(21)
   >= -1994
 c57: - 1000 B1(36) - 1000 B18(37) - 1000 B39(4) + I256(37) - I273(37)
   >= -2997
 c58: - 1000 B1(36) - 1000 B18(37) + 1000 B39(4) - I256(37) + I273(37)
   >= -1995
 c59: - 1000 B0(20) - 1000 B20(21) - 1000 B40(4) + I255(21) - I275(21)
   >= -2992
 c60: - 1000 B0(20) - 1000 B20(21) + 1000 B40(4) - I255(21) + I275(21)
   >= -1994
 c61: - 1000 B1(36) - 1000 B21(37) - 1000 B40(4) + I256(37) - I276(37)
   >= -2997
 c62: - 1000 B1(36) - 1000 B21(37) + 1000 B40(4) - I256(37) + I276(37)
   >= -1993
 c63: - 1000 B0(20) - 1000 B23(21) - 1000 B41(2) + I255(21) - I278(23)
   >= -2995
 c64: - 1000 B0(20) - 1000 B23(21) + 1000 B41(2) - I255(21) + I278(23)
   >= -1992
 c65: - 1000 B1(36) - 1000 B24(37) - 1000 B42(2) + I256(37) - I279(40)
   >= -2996
 c66: - 1000 B1(36) - 1000 B24(37) + 1000 B42(2) - I256(37) + I279(40)
   >= -1994
 c67: - 1000 B1(36) - 1000 B26(37) - 1000 B43(2) + I256(37) - I281(37)
   >= -2995
 c68: - 1000 B1(36) - 1000 B26(37) + 1000 B43(2) - I256(37) + I281(37)
   >= -1994
 c69: - 1000 B3(25) - 1000 B4(25) - 1000 B47(2) + I258(27) - I259(25)
   >= -2995
 c70: - 1000 B3(25) - 1000 B4(25) + 1000 B47(2) - I258(27) + I259(25)
   >= -1995
 c71: - 1000 B3(25) - 1000 B6(25) - 1000 B48(2) + I258(27) - I261(25)
   >= -2996
 c72: - 1000 B3(25) - 1000 B6(25) + 1000 B48(2) - I258(27) + I261(25)
   >= -1997
 c73: - 1000 B2(21) - 1000 B8(21) - 1000 B49(2) + I257(23) - I263(21)
   >= -2995
 c74: - 1000 B2(21) - 1000 B8(21) + 1000 B49(2) - I257(23) + I263(21)
   >= -1997
 c75: - 1000 B2(21) - 1000 B10(21) - 1000 B50(2) + I257(23) - I265(21)
   >= -2993
 c76: - 1000 B2(21) - 1000 B10(21) + 1000 B50(2) - I257(23) + I265(21)
   >= -1997
 c77: - 1000 B2(21) - 1000 B16(21) - 1000 B53(2) + I257(23) - I271(22)
   >= -2994
 c78: - 1000 B2(21) - 1000 B16(21) + 1000 B53(2) - I257(23) + I271(22)
   >= -1997
 c79: - 1000 B3(25) - 1000 B22(25) - 1000 B56(2) + I258(27) - I277(27)
   >= -2994
 c80: - 1000 B3(25) - 1000 B22(25) + 1000 B56(2) - I258(27) + I277(27)
   >= -1995
 c81: - 1000 B3(25) - 1000 B25(25) - 1000 B57(2) + I258(27) - I280(28)
   >= -2995
 c82: - 1000 B3(25) - 1000 B25(25) + 1000 B57(2) - I258(27) + I280(28)
   >= -1995
 c83: - 1000 B3(25) - 1000 B29(25) - 1000 B59(4) + I258(27) - I284(27)
   >= -2996
 c84: - 1000 B3(25) - 1000 B29(25) + 1000 B59(4) - I258(27) + I284(27)
   >= -1995
 c85: - 1000 B2(21) - 1000 B28(21) - 1000 B59(4) + I257(23) - I283(23)
   >= -2992
 c86: - 1000 B2(21) - 1000 B28(21) + 1000 B59(4) - I257(23) + I283(23)
   >= -1996
 c87: - 1000 B1(36) - 1000 B5(37) - 1000 B60(2) - I256(37) + I260(37)
   >= -2994
 c88: - 1000 B1(36) - 1000 B5(37) + 1000 B60(2) + I256(37) - I260(37)
   >= -1992
 c89: - 1000 B3(25) - 1000 B4(25) - 1000 B61(2) - I258(27) + I259(25)
   >= -2995
 c90: - 1000 B3(25) - 1000 B4(25) + 1000 B61(2) + I258(27) - I259(25)
   >= -1995
 c91: - 1000 B5(37) - 1000 B7(37) - 1000 B63(4) + I260(37) - I262(37)
   >= -2994
 c92: - 1000 B5(37) - 1000 B7(37) + 1000 B63(4) - I260(37) + I262(37)
   >= -1994
 c93: - 1000 B4(25) - 1000 B6(25) - 1000 B63(4) + I259(25) - I261(25)
   >= -2996
 c94: - 1000 B4(25) - 1000 B6(25) + 1000 B63(4) - I259(25) + I261(25)
   >= -1997
 c95: - 1000 B5(37) - 1000 B12(37) - 1000 B66(2) + I260(37) - I267(37)
   >= -2994
 c96: - 1000 B5(37) - 1000 B12(37) + 1000 B66(2) - I260(37) + I267(37)
   >= -1992
 c97: - 1000 B5(37) - 1000 B15(37) - 1000 B67(2) + I260(37) - I270(40)
   >= -2996
 c98: - 1000 B5(37) - 1000 B15(37) + 1000 B67(2) - I260(37) + I270(40)
   >= -1992
 c99: - 1000 B5(37) - 1000 B18(37) - 1000 B69(2) + I260(37) - I273(37)
   >= -2995
 c100: - 1000 B5(37) - 1000 B18(37) + 1000 B69(2) - I260(37) + I273(37)
   >= -1993
 c101: - 1000 B5(37) - 1000 B21(37) - 1000 B70(2) + I260(37) - I276(37)
   >= -2997
 c102: - 1000 B5(37) - 1000 B21(37) + 1000 B70(2) - I260(37) + I276(37)
   >= -1992
 c103: - 1000 B4(25) - 1000 B22(25) - 1000 B71(2) + I259(25) - I277(27)
   >= -2993
 c104: - 1000 B4(25) - 1000 B22(25) + 1000 B71(2) - I259(25) + I277(27)
   >= -1996
 c105: - 1000 B5(37) - 1000 B24(37) - 1000 B72(4) + I260(37) - I279(40)
   >= -2995
 c106: - 1000 B5(37) - 1000 B24(37) + 1000 B72(4) - I260(37) + I279(40)
   >= -1993
 c107: - 1000 B4(25) - 1000 B25(25) - 1000 B72(4) + I259(25) - I280(28)
   >= -2993
 c108: - 1000 B4(25) - 1000 B25(25) + 1000 B72(4) - I259(25) + I280(28)
   >= -1996
 c109: - 1000 B5(37) - 1000 B26(37) - 1000 B73(2) + I260(37) - I281(37)
   >= -2995
 c110: - 1000 B5(37) - 1000 B26(37) + 1000 B73(2) - I260(37) + I281(37)
   >= -1992
 c111: - 1000 B4(25) - 1000 B29(25) - 1000 B74(2) + I259(25) - I284(27)
   >= -2997
 c112: - 1000 B4(25) - 1000 B29(25) + 1000 B74(2) - I259(25) + I284(27)
   >= -1995
 c113: - 1000 B1(36) - 1000 B7(37) - 1000 B75(2) - I256(37) + I262(37)
   >= -2993
 c114: - 1000 B1(36) - 1000 B7(37) + 1000 B75(2) + I256(37) - I262(37)
   >= -1992
 c115: - 1000 B3(25) - 1000 B6(25) - 1000 B76(2) - I258(27) + I261(25)
   >= -2997
 c116: - 1000 B3(25) - 1000 B6(25) + 1000 B76(2) + I258(27) - I261(25)
   >= -1996
 c117: - 1000 B5(37) - 1000 B7(37) - 1000 B77(4) - I260(37) + I262(37)
   >= -2994
 c118: - 1000 B5(37) - 1000 B7(37) + 1000 B77(4) + I260(37) - I262(37)
   >= -1994
 c119: - 1000 B4(25) - 1000 B6(25) - 1000 B77(4) - I259(25) + I261(25)
   >= -2997
 c120: - 1000 B4(25) - 1000 B6(25) + 1000 B77(4) + I259(25) - I261(25)
   >= -1996
 c121: - 1000 B7(37) - 1000 B12(37) - 1000 B81(2) + I262(37) - I267(37)
   >= -2996
 c122: - 1000 B7(37) - 1000 B12(37) + 1000 B81(2) - I262(37) + I267(37)
   >= -1993
 c123: - 1000 B7(37) - 1000 B15(37) - 1000 B82(2) + I262(37) - I270(40)
   >= -2995
 c124: - 1000 B7(37) - 1000 B15(37) + 1000 B82(2) - I262(37) + I270(40)
   >= -1992
 c125: - 1000 B7(37) - 1000 B18(37) - 1000 B84(2) + I262(37) - I273(37)
   >= -2997
 c126: - 1000 B7(37) - 1000 B18(37) + 1000 B84(2) - I262(37) + I273(37)
   >= -1992
 c127: - 1000 B7(37) - 1000 B21(37) - 1000 B85(2) + I262(37) - I276(37)
   >= -2995
 c128: - 1000 B7(37) - 1000 B21(37) + 1000 B85(2) - I262(37) + I276(37)
   >= -1993
 c129: - 1000 B6(25) - 1000 B22(25) - 1000 B86(2) + I261(25) - I277(27)
   >= -2994
 c130: - 1000 B6(25) - 1000 B22(25) + 1000 B86(2) - I261(25) + I277(27)
   >= -1997
 c131: - 1000 B7(37) - 1000 B24(37) - 1000 B87(4) + I262(37) - I279(40)
   >= -2997
 c132: - 1000 B7(37) - 1000 B24(37) + 1000 B87(4) - I262(37) + I279(40)
   >= -1994
 c133: - 1000 B6(25) - 1000 B25(25) - 1000 B87(4) + I261(25) - I280(28)
   >= -2994
 c134: - 1000 B6(25) - 1000 B25(25) + 1000 B87(4) - I261(25) + I280(28)
   >= -1997
 c135: - 1000 B7(37) - 1000 B26(37) - 1000 B88(2) + I262(37) - I281(37)
   >= -2994
 c136: - 1000 B7(37) - 1000 B26(37) + 1000 B88(2) - I262(37) + I281(37)
   >= -1992
 c137: - 1000 B6(25) - 1000 B29(25) - 1000 B89(2) + I261(25) - I284(27)
   >= -2997
 c138: - 1000 B6(25) - 1000 B29(25) + 1000 B89(2) - I261(25) + I284(27)
   >= -1996
 c139: - 1000 B2(21) - 1000 B8(21) - 1000 B91(2) - I257(23) + I263(21)
   >= -2997
 c140: - 1000 B2(21) - 1000 B8(21) + 1000 B91(2) + I257(23) - I263(21)
   >= -1995
 c141: - 1000 B9(21) - 1000 B11(21) - 1000 B95(4) + I264(21) - I266(21)
   >= -2997
 c142: - 1000 B9(21) - 1000 B11(21) + 1000 B95(4) - I264(21) + I266(21)
   >= -1995
 c143: - 1000 B8(21) - 1000 B10(21) - 1000 B95(4) + I263(21) - I265(21)
   >= -2995
 c144: - 1000 B8(21) - 1000 B10(21) + 1000 B95(4) - I263(21) + I265(21)
   >= -1995
 c145: - 1000 B9(21) - 1000 B13(21) - 1000 B96(2) + I264(21) - I268(21)
   >= -2994
 c146: - 1000 B9(21) - 1000 B13(21) + 1000 B96(2) - I264(21) + I268(21)
   >= -1995
 c147: - 1000 B9(21) - 1000 B17(21) - 1000 B98(4) + I264(21) - I272(22)
   >= -2997
 c148: - 1000 B9(21) - 1000 B17(21) + 1000 B98(4) - I264(21) + I272(22)
   >= -1995
 c149: - 1000 B8(21) - 1000 B16(21) - 1000 B98(4) + I263(21) - I271(22)
   >= -2994
 c150: - 1000 B8(21) - 1000 B16(21) + 1000 B98(4) - I263(21) + I271(22)
   >= -1995
 c151: - 1000 B9(21) - 1000 B27(21) - 1000 B103(2) + I264(21) - I282(21)
   >= -2994
 c152: - 1000 B9(21) - 1000 B27(21) + 1000 B103(2) - I264(21) + I282(21)
   >= -1996
 c153: - 1000 B8(21) - 1000 B28(21) - 1000 B104(2) + I263(21) - I283(23)
   >= -2992
 c154: - 1000 B8(21) - 1000 B28(21) + 1000 B104(2) - I263(21) + I283(23)
   >= -1995
 c155: - 1000 B2(21) - 1000 B10(21) - 1000 B106(2) - I257(23) + I265(21)
   >= -2997
 c156: - 1000 B2(21) - 1000 B10(21) + 1000 B106(2) + I257(23) - I265(21)
   >= -1993
 c157: - 1000 B9(21) - 1000 B11(21) - 1000 B109(4) - I264(21) + I266(21)
   >= -2995
 c158: - 1000 B9(21) - 1000 B11(21) + 1000 B109(4) + I264(21) - I266(21)
   >= -1997
 c159: - 1000 B8(21) - 1000 B10(21) - 1000 B109(4) - I263(21) + I265(21)
   >= -2995
 c160: - 1000 B8(21) - 1000 B10(21) + 1000 B109(4) + I263(21) - I265(21)
   >= -1995
 c161: - 1000 B11(21) - 1000 B13(21) - 1000 B111(2) + I266(21) - I268(21)
   >= -2994
 c162: - 1000 B11(21) - 1000 B13(21) + 1000 B111(2) - I266(21) + I268(21)
   >= -1995
 c163: - 1000 B11(21) - 1000 B17(21) - 1000 B113(4) + I266(21) - I272(22)
   >= -2995
 c164: - 1000 B11(21) - 1000 B17(21) + 1000 B113(4) - I266(21) + I272(22)
   >= -1995
 c165: - 1000 B10(21) - 1000 B16(21) - 1000 B113(4) + I265(21) - I271(22)
   >= -2993
 c166: - 1000 B10(21) - 1000 B16(21) + 1000 B113(4) - I265(21) + I271(22)
   >= -1993
 c167: - 1000 B11(21) - 1000 B27(21) - 1000 B118(2) + I266(21) - I282(21)
   >= -2993
 c168: - 1000 B11(21) - 1000 B27(21) + 1000 B118(2) - I266(21) + I282(21)
   >= -1997
 c169: - 1000 B10(21) - 1000 B28(21) - 1000 B119(2) + I265(21) - I283(23)
   >= -2994
 c170: - 1000 B10(21) - 1000 B28(21) + 1000 B119(2) - I265(21) + I283(23)
   >= -1995
 c171: - 1000 B1(36) - 1000 B12(37) - 1000 B120(2) - I256(37) + I267(37)
   >= -2995
 c172: - 1000 B1(36) - 1000 B12(37) + 1000 B120(2) + I256(37) - I267(37)
   >= -1996
 c173: - 1000 B5(37) - 1000 B12(37) - 1000 B122(2) - I260(37) + I267(37)
   >= -2992
 c174: - 1000 B5(37) - 1000 B12(37) + 1000 B122(2) + I260(37) - I267(37)
   >= -1994
 c175: - 1000 B7(37) - 1000 B12(37) - 1000 B123(2) - I262(37) + I267(37)
   >= -2993
 c176: - 1000 B7(37) - 1000 B12(37) + 1000 B123(2) + I262(37) - I267(37)
   >= -1996
 c177: - 1000 B9(21) - 1000 B13(21) - 1000 B124(2) - I264(21) + I268(21)
   >= -2995
 c178: - 1000 B9(21) - 1000 B13(21) + 1000 B124(2) + I264(21) - I268(21)
   >= -1994
 c179: - 1000 B11(21) - 1000 B13(21) - 1000 B125(2) - I266(21) + I268(21)
   >= -2995
 c180: - 1000 B11(21) - 1000 B13(21) + 1000 B125(2) + I266(21) - I268(21)
   >= -1994
 c181: - 1000 B12(37) - 1000 B15(37) - 1000 B127(2) + I267(37) - I270(40)
   >= -2996
 c182: - 1000 B12(37) - 1000 B15(37) + 1000 B127(2) - I267(37) + I270(40)
   >= -1996
 c183: - 1000 B13(21) - 1000 B17(21) - 1000 B128(2) + I268(21) - I272(22)
   >= -2996
 c184: - 1000 B13(21) - 1000 B17(21) + 1000 B128(2) - I268(21) + I272(22)
   >= -1995
 c185: - 1000 B12(37) - 1000 B18(37) - 1000 B129(2) + I267(37) - I273(37)
   >= -2995
 c186: - 1000 B12(37) - 1000 B18(37) + 1000 B129(2) - I267(37) + I273(37)
   >= -1996
 c187: - 1000 B12(37) - 1000 B21(37) - 1000 B130(2) + I267(37) - I276(37)
   >= -2997
 c188: - 1000 B12(37) - 1000 B21(37) + 1000 B130(2) - I267(37) + I276(37)
   >= -1996
 c189: - 1000 B12(37) - 1000 B24(37) - 1000 B132(2) + I267(37) - I279(40)
   >= -2995
 c190: - 1000 B12(37) - 1000 B24(37) + 1000 B132(2) - I267(37) + I279(40)
   >= -1994
 c191: - 1000 B13(21) - 1000 B27(21) - 1000 B133(4) + I268(21) - I282(21)
   >= -2994
 c192: - 1000 B13(21) - 1000 B27(21) + 1000 B133(4) - I268(21) + I282(21)
   >= -1996
 c193: - 1000 B12(37) - 1000 B26(37) - 1000 B133(4) + I267(37) - I281(37)
   >= -2994
 c194: - 1000 B12(37) - 1000 B26(37) + 1000 B133(4) - I267(37) + I281(37)
   >= -1996
 c195: - 1000 B0(20) - 1000 B14(21) - 1000 B135(4) - I255(21) + I269(24)
   >= -2993
 c196: - 1000 B0(20) - 1000 B14(21) + 1000 B135(4) + I255(21) - I269(24)
   >= -1996
 c197: - 1000 B1(36) - 1000 B15(37) - 1000 B135(4) - I256(37) + I270(40)
   >= -2995
 c198: - 1000 B1(36) - 1000 B15(37) + 1000 B135(4) + I256(37) - I270(40)
   >= -1994
 c199: - 1000 B5(37) - 1000 B15(37) - 1000 B137(2) - I260(37) + I270(40)
   >= -2992
 c200: - 1000 B5(37) - 1000 B15(37) + 1000 B137(2) + I260(37) - I270(40)
   >= -1996
 c201: - 1000 B7(37) - 1000 B15(37) - 1000 B138(2) - I262(37) + I270(40)
   >= -2992
 c202: - 1000 B7(37) - 1000 B15(37) + 1000 B138(2) + I262(37) - I270(40)
   >= -1995
 c203: - 1000 B12(37) - 1000 B15(37) - 1000 B141(2) - I267(37) + I270(40)
   >= -2996
 c204: - 1000 B12(37) - 1000 B15(37) + 1000 B141(2) + I267(37) - I270(40)
   >= -1996
 c205: - 1000 B14(21) - 1000 B19(21) - 1000 B144(4) + I269(24) - I274(21)
   >= -2994
 c206: - 1000 B14(21) - 1000 B19(21) + 1000 B144(4) - I269(24) + I274(21)
   >= -1994
 c207: - 1000 B15(37) - 1000 B18(37) - 1000 B144(4) + I270(40) - I273(37)
   >= -2997
 c208: - 1000 B15(37) - 1000 B18(37) + 1000 B144(4) - I270(40) + I273(37)
   >= -1996
 c209: - 1000 B14(21) - 1000 B20(21) - 1000 B145(4) + I269(24) - I275(21)
   >= -2994
 c210: - 1000 B14(21) - 1000 B20(21) + 1000 B145(4) - I269(24) + I275(21)
   >= -1994
 c211: - 1000 B15(37) - 1000 B21(37) - 1000 B145(4) + I270(40) - I276(37)
   >= -2996
 c212: - 1000 B15(37) - 1000 B21(37) + 1000 B145(4) - I270(40) + I276(37)
   >= -1995
 c213: - 1000 B14(21) - 1000 B23(21) - 1000 B146(2) + I269(24) - I278(23)
   >= -2993
 c214: - 1000 B14(21) - 1000 B23(21) + 1000 B146(2) - I269(24) + I278(23)
   >= -1994
 c215: - 1000 B15(37) - 1000 B24(37) - 1000 B147(2) + I270(40) - I279(40)
   >= -2997
 c216: - 1000 B15(37) - 1000 B24(37) + 1000 B147(2) - I270(40) + I279(40)
   >= -1996
 c217: - 1000 B15(37) - 1000 B26(37) - 1000 B148(2) + I270(40) - I281(37)
   >= -2994
 c218: - 1000 B15(37) - 1000 B26(37) + 1000 B148(2) - I270(40) + I281(37)
   >= -1995
 c219: - 1000 B2(21) - 1000 B16(21) - 1000 B151(2) - I257(23) + I271(22)
   >= -2997
 c220: - 1000 B2(21) - 1000 B16(21) + 1000 B151(2) + I257(23) - I271(22)
   >= -1994
 c221: - 1000 B9(21) - 1000 B17(21) - 1000 B154(4) - I264(21) + I272(22)
   >= -2995
 c222: - 1000 B9(21) - 1000 B17(21) + 1000 B154(4) + I264(21) - I272(22)
   >= -1997
 c223: - 1000 B8(21) - 1000 B16(21) - 1000 B154(4) - I263(21) + I271(22)
   >= -2995
 c224: - 1000 B8(21) - 1000 B16(21) + 1000 B154(4) + I263(21) - I271(22)
   >= -1994
 c225: - 1000 B11(21) - 1000 B17(21) - 1000 B155(4) - I266(21) + I272(22)
   >= -2995
 c226: - 1000 B11(21) - 1000 B17(21) + 1000 B155(4) + I266(21) - I272(22)
   >= -1995
 c227: - 1000 B10(21) - 1000 B16(21) - 1000 B155(4) - I265(21) + I271(22)
   >= -2993
 c228: - 1000 B10(21) - 1000 B16(21) + 1000 B155(4) + I265(21) - I271(22)
   >= -1993
 c229: - 1000 B13(21) - 1000 B17(21) - 1000 B156(2) - I268(21) + I272(22)
   >= -2995
 c230: - 1000 B13(21) - 1000 B17(21) + 1000 B156(2) + I268(21) - I272(22)
   >= -1996
 c231: - 1000 B17(21) - 1000 B27(21) - 1000 B163(2) + I272(22) - I282(21)
   >= -2993
 c232: - 1000 B17(21) - 1000 B27(21) + 1000 B163(2) - I272(22) + I282(21)
   >= -1997
 c233: - 1000 B16(21) - 1000 B28(21) - 1000 B164(2) + I271(22) - I283(23)
   >= -2992
 c234: - 1000 B16(21) - 1000 B28(21) + 1000 B164(2) - I271(22) + I283(23)
   >= -1992
 c235: - 1000 B0(20) - 1000 B19(21) - 1000 B165(4) - I255(21) + I274(21)
   >= -2994
 c236: - 1000 B0(20) - 1000 B19(21) + 1000 B165(4) + I255(21) - I274(21)
   >= -1994
 c237: - 1000 B1(36) - 1000 B18(37) - 1000 B165(4) - I256(37) + I273(37)
   >= -2995
 c238: - 1000 B1(36) - 1000 B18(37) + 1000 B165(4) + I256(37) - I273(37)
   >= -1997
 c239: - 1000 B5(37) - 1000 B18(37) - 1000 B167(2) - I260(37) + I273(37)
   >= -2993
 c240: - 1000 B5(37) - 1000 B18(37) + 1000 B167(2) + I260(37) - I273(37)
   >= -1995
 c241: - 1000 B7(37) - 1000 B18(37) - 1000 B168(2) - I262(37) + I273(37)
   >= -2992
 c242: - 1000 B7(37) - 1000 B18(37) + 1000 B168(2) + I262(37) - I273(37)
   >= -1997
 c243: - 1000 B12(37) - 1000 B18(37) - 1000 B171(2) - I267(37) + I273(37)
   >= -2996
 c244: - 1000 B12(37) - 1000 B18(37) + 1000 B171(2) + I267(37) - I273(37)
   >= -1995
 c245: - 1000 B14(21) - 1000 B19(21) - 1000 B172(4) - I269(24) + I274(21)
   >= -2994
 c246: - 1000 B14(21) - 1000 B19(21) + 1000 B172(4) + I269(24) - I274(21)
   >= -1994
 c247: - 1000 B15(37) - 1000 B18(37) - 1000 B172(4) - I270(40) + I273(37)
   >= -2996
 c248: - 1000 B15(37) - 1000 B18(37) + 1000 B172(4) + I270(40) - I273(37)
   >= -1997
 c249: - 1000 B19(21) - 1000 B20(21) - 1000 B175(4) + I274(21) - I275(21)
   >= -2992
 c250: - 1000 B19(21) - 1000 B20(21) + 1000 B175(4) - I274(21) + I275(21)
   >= -1993
 c251: - 1000 B18(37) - 1000 B21(37) - 1000 B175(4) + I273(37) - I276(37)
   >= -2996
 c252: - 1000 B18(37) - 1000 B21(37) + 1000 B175(4) - I273(37) + I276(37)
   >= -1996
 c253: - 1000 B19(21) - 1000 B23(21) - 1000 B176(2) + I274(21) - I278(23)
   >= -2993
 c254: - 1000 B19(21) - 1000 B23(21) + 1000 B176(2) - I274(21) + I278(23)
   >= -1993
 c255: - 1000 B18(37) - 1000 B24(37) - 1000 B177(2) + I273(37) - I279(40)
   >= -2996
 c256: - 1000 B18(37) - 1000 B24(37) + 1000 B177(2) - I273(37) + I279(40)
   >= -1997
 c257: - 1000 B18(37) - 1000 B26(37) - 1000 B178(2) + I273(37) - I281(37)
   >= -2996
 c258: - 1000 B18(37) - 1000 B26(37) + 1000 B178(2) - I273(37) + I281(37)
   >= -1995
 c259: - 1000 B0(20) - 1000 B20(21) - 1000 B180(4) - I255(21) + I275(21)
   >= -2994
 c260: - 1000 B0(20) - 1000 B20(21) + 1000 B180(4) + I255(21) - I275(21)
   >= -1992
 c261: - 1000 B1(36) - 1000 B21(37) - 1000 B180(4) - I256(37) + I276(37)
   >= -2993
 c262: - 1000 B1(36) - 1000 B21(37) + 1000 B180(4) + I256(37) - I276(37)
   >= -1997
 c263: - 1000 B5(37) - 1000 B21(37) - 1000 B182(2) - I260(37) + I276(37)
   >= -2992
 c264: - 1000 B5(37) - 1000 B21(37) + 1000 B182(2) + I260(37) - I276(37)
   >= -1997
 c265: - 1000 B7(37) - 1000 B21(37) - 1000 B183(2) - I262(37) + I276(37)
   >= -2993
 c266: - 1000 B7(37) - 1000 B21(37) + 1000 B183(2) + I262(37) - I276(37)
   >= -1995
 c267: - 1000 B12(37) - 1000 B21(37) - 1000 B186(2) - I267(37) + I276(37)
   >= -2996
 c268: - 1000 B12(37) - 1000 B21(37) + 1000 B186(2) + I267(37) - I276(37)
   >= -1997
 c269: - 1000 B14(21) - 1000 B20(21) - 1000 B187(4) - I269(24) + I275(21)
   >= -2994
 c270: - 1000 B14(21) - 1000 B20(21) + 1000 B187(4) + I269(24) - I275(21)
   >= -1994
 c271: - 1000 B15(37) - 1000 B21(37) - 1000 B187(4) - I270(40) + I276(37)
   >= -2995
 c272: - 1000 B15(37) - 1000 B21(37) + 1000 B187(4) + I270(40) - I276(37)
   >= -1996
 c273: - 1000 B19(21) - 1000 B20(21) - 1000 B189(4) - I274(21) + I275(21)
   >= -2993
 c274: - 1000 B19(21) - 1000 B20(21) + 1000 B189(4) + I274(21) - I275(21)
   >= -1992
 c275: - 1000 B18(37) - 1000 B21(37) - 1000 B189(4) - I273(37) + I276(37)
   >= -2996
 c276: - 1000 B18(37) - 1000 B21(37) + 1000 B189(4) + I273(37) - I276(37)
   >= -1996
 c277: - 1000 B20(21) - 1000 B23(21) - 1000 B191(2) + I275(21) - I278(23)
   >= -2994
 c278: - 1000 B20(21) - 1000 B23(21) + 1000 B191(2) - I275(21) + I278(23)
   >= -1993
 c279: - 1000 B21(37) - 1000 B24(37) - 1000 B192(2) + I276(37) - I279(40)
   >= -2995
 c280: - 1000 B21(37) - 1000 B24(37) + 1000 B192(2) - I276(37) + I279(40)
   >= -1995
 c281: - 1000 B21(37) - 1000 B26(37) - 1000 B193(2) + I276(37) - I281(37)
   >= -2994
 c282: - 1000 B21(37) - 1000 B26(37) + 1000 B193(2) - I276(37) + I281(37)
   >= -1997
 c283: - 1000 B0(20) - 1000 B23(21) - 1000 B195(2) - I255(21) + I278(23)
   >= -2992
 c284: - 1000 B0(20) - 1000 B23(21) + 1000 B195(2) + I255(21) - I278(23)
   >= -1995
 c285: - 1000 B3(25) - 1000 B22(25) - 1000 B196(2) - I258(27) + I277(27)
   >= -2995
 c286: - 1000 B3(25) - 1000 B22(25) + 1000 B196(2) + I258(27) - I277(27)
   >= -1994
 c287: - 1000 B4(25) - 1000 B22(25) - 1000 B197(2) - I259(25) + I277(27)
   >= -2996
 c288: - 1000 B4(25) - 1000 B22(25) + 1000 B197(2) + I259(25) - I277(27)
   >= -1993
 c289: - 1000 B6(25) - 1000 B22(25) - 1000 B198(2) - I261(25) + I277(27)
   >= -2997
 c290: - 1000 B6(25) - 1000 B22(25) + 1000 B198(2) + I261(25) - I277(27)
   >= -1994
 c291: - 1000 B14(21) - 1000 B23(21) - 1000 B202(2) - I269(24) + I278(23)
   >= -2994
 c292: - 1000 B14(21) - 1000 B23(21) + 1000 B202(2) + I269(24) - I278(23)
   >= -1993
 c293: - 1000 B19(21) - 1000 B23(21) - 1000 B204(2) - I274(21) + I278(23)
   >= -2993
 c294: - 1000 B19(21) - 1000 B23(21) + 1000 B204(2) + I274(21) - I278(23)
   >= -1993
 c295: - 1000 B20(21) - 1000 B23(21) - 1000 B205(2) - I275(21) + I278(23)
   >= -2993
 c296: - 1000 B20(21) - 1000 B23(21) + 1000 B205(2) + I275(21) - I278(23)
   >= -1994
 c297: - 1000 B22(25) - 1000 B25(25) - 1000 B207(2) + I277(27) - I280(28)
   >= -2995
 c298: - 1000 B22(25) - 1000 B25(25) + 1000 B207(2) - I277(27) + I280(28)
   >= -1994
 c299: - 1000 B22(25) - 1000 B29(25) - 1000 B209(2) + I277(27) - I284(27)
   >= -2996
 c300: - 1000 B22(25) - 1000 B29(25) + 1000 B209(2) - I277(27) + I284(27)
   >= -1993
 c301: - 1000 B1(36) - 1000 B24(37) - 1000 B210(2) - I256(37) + I279(40)
   >= -2994
 c302: - 1000 B1(36) - 1000 B24(37) + 1000 B210(2) + I256(37) - I279(40)
   >= -1996
 c303: - 1000 B3(25) - 1000 B25(25) - 1000 B211(2) - I258(27) + I280(28)
   >= -2995
 c304: - 1000 B3(25) - 1000 B25(25) + 1000 B211(2) + I258(27) - I280(28)
   >= -1995
 c305: - 1000 B5(37) - 1000 B24(37) - 1000 B212(4) - I260(37) + I279(40)
   >= -2993
 c306: - 1000 B5(37) - 1000 B24(37) + 1000 B212(4) + I260(37) - I279(40)
   >= -1995
 c307: - 1000 B4(25) - 1000 B25(25) - 1000 B212(4) - I259(25) + I280(28)
   >= -2996
 c308: - 1000 B4(25) - 1000 B25(25) + 1000 B212(4) + I259(25) - I280(28)
   >= -1993
 c309: - 1000 B7(37) - 1000 B24(37) - 1000 B213(4) - I262(37) + I279(40)
   >= -2994
 c310: - 1000 B7(37) - 1000 B24(37) + 1000 B213(4) + I262(37) - I279(40)
   >= -1997
 c311: - 1000 B6(25) - 1000 B25(25) - 1000 B213(4) - I261(25) + I280(28)
   >= -2997
 c312: - 1000 B6(25) - 1000 B25(25) + 1000 B213(4) + I261(25) - I280(28)
   >= -1994
 c313: - 1000 B12(37) - 1000 B24(37) - 1000 B216(2) - I267(37) + I279(40)
   >= -2994
 c314: - 1000 B12(37) - 1000 B24(37) + 1000 B216(2) + I267(37) - I279(40)
   >= -1995
 c315: - 1000 B15(37) - 1000 B24(37) - 1000 B217(2) - I270(40) + I279(40)
   >= -2996
 c316: - 1000 B15(37) - 1000 B24(37) + 1000 B217(2) + I270(40) - I279(40)
   >= -1997
 c317: - 1000 B18(37) - 1000 B24(37) - 1000 B219(2) - I273(37) + I279(40)
   >= -2997
 c318: - 1000 B18(37) - 1000 B24(37) + 1000 B219(2) + I273(37) - I279(40)
   >= -1996
 c319: - 1000 B21(37) - 1000 B24(37) - 1000 B220(2) - I276(37) + I279(40)
   >= -2995
 c320: - 1000 B21(37) - 1000 B24(37) + 1000 B220(2) + I276(37) - I279(40)
   >= -1995
 c321: - 1000 B22(25) - 1000 B25(25) - 1000 B221(2) - I277(27) + I280(28)
   >= -2994
 c322: - 1000 B22(25) - 1000 B25(25) + 1000 B221(2) + I277(27) - I280(28)
   >= -1995
 c323: - 1000 B24(37) - 1000 B26(37) - 1000 B223(2) + I279(40) - I281(37)
   >= -2995
 c324: - 1000 B24(37) - 1000 B26(37) + 1000 B223(2) - I279(40) + I281(37)
   >= -1997
 c325: - 1000 B25(25) - 1000 B29(25) - 1000 B224(2) + I280(28) - I284(27)
   >= -2997
 c326: - 1000 B25(25) - 1000 B29(25) + 1000 B224(2) - I280(28) + I284(27)
   >= -1995
 c327: - 1000 B1(36) - 1000 B26(37) - 1000 B225(2) - I256(37) + I281(37)
   >= -2994
 c328: - 1000 B1(36) - 1000 B26(37) + 1000 B225(2) + I256(37) - I281(37)
   >= -1995
 c329: - 1000 B5(37) - 1000 B26(37) - 1000 B227(2) - I260(37) + I281(37)
   >= -2992
 c330: - 1000 B5(37) - 1000 B26(37) + 1000 B227(2) + I260(37) - I281(37)
   >= -1995
 c331: - 1000 B7(37) - 1000 B26(37) - 1000 B228(2) - I262(37) + I281(37)
   >= -2992
 c332: - 1000 B7(37) - 1000 B26(37) + 1000 B228(2) + I262(37) - I281(37)
   >= -1994
 c333: - 1000 B9(21) - 1000 B27(21) - 1000 B229(2) - I264(21) + I282(21)
   >= -2996
 c334: - 1000 B9(21) - 1000 B27(21) + 1000 B229(2) + I264(21) - I282(21)
   >= -1994
 c335: - 1000 B11(21) - 1000 B27(21) - 1000 B230(2) - I266(21) + I282(21)
   >= -2997
 c336: - 1000 B11(21) - 1000 B27(21) + 1000 B230(2) + I266(21) - I282(21)
   >= -1993
 c337: - 1000 B13(21) - 1000 B27(21) - 1000 B231(4) - I268(21) + I282(21)
   >= -2996
 c338: - 1000 B13(21) - 1000 B27(21) + 1000 B231(4) + I268(21) - I282(21)
   >= -1994
 c339: - 1000 B12(37) - 1000 B26(37) - 1000 B231(4) - I267(37) + I281(37)
   >= -2996
 c340: - 1000 B12(37) - 1000 B26(37) + 1000 B231(4) + I267(37) - I281(37)
   >= -1994
 c341: - 1000 B15(37) - 1000 B26(37) - 1000 B232(2) - I270(40) + I281(37)
   >= -2995
 c342: - 1000 B15(37) - 1000 B26(37) + 1000 B232(2) + I270(40) - I281(37)
   >= -1994
 c343: - 1000 B17(21) - 1000 B27(21) - 1000 B233(2) - I272(22) + I282(21)
   >= -2997
 c344: - 1000 B17(21) - 1000 B27(21) + 1000 B233(2) + I272(22) - I282(21)
   >= -1993
 c345: - 1000 B18(37) - 1000 B26(37) - 1000 B234(2) - I273(37) + I281(37)
   >= -2995
 c346: - 1000 B18(37) - 1000 B26(37) + 1000 B234(2) + I273(37) - I281(37)
   >= -1996
 c347: - 1000 B21(37) - 1000 B26(37) - 1000 B235(2) - I276(37) + I281(37)
   >= -2997
 c348: - 1000 B21(37) - 1000 B26(37) + 1000 B235(2) + I276(37) - I281(37)
   >= -1994
 c349: - 1000 B24(37) - 1000 B26(37) - 1000 B237(2) - I279(40) + I281(37)
   >= -2997
 c350: - 1000 B24(37) - 1000 B26(37) + 1000 B237(2) + I279(40) - I281(37)
   >= -1995
 c351: - 1000 B3(25) - 1000 B29(25) - 1000 B241(4) - I258(27) + I284(27)
   >= -2995
 c352: - 1000 B3(25) - 1000 B29(25) + 1000 B241(4) + I258(27) - I284(27)
   >= -1996
 c353: - 1000 B2(21) - 1000 B28(21) - 1000 B241(4) - I257(23) + I283(23)
   >= -2996
 c354: - 1000 B2(21) - 1000 B28(21) + 1000 B241(4) + I257(23) - I283(23)
   >= -1992
 c355: - 1000 B4(25) - 1000 B29(25) - 1000 B242(2) - I259(25) + I284(27)
   >= -2995
 c356: - 1000 B4(25) - 1000 B29(25) + 1000 B242(2) + I259(25) - I284(27)
   >= -1997
 c357: - 1000 B6(25) - 1000 B29(25) - 1000 B243(2) - I261(25) + I284(27)
   >= -2996
 c358: - 1000 B6(25) - 1000 B29(25) + 1000 B243(2) + I261(25) - I284(27)
   >= -1997
 c359: - 1000 B8(21) - 1000 B28(21) - 1000 B244(2) - I263(21) + I283(23)
   >= -2995
 c360: - 1000 B8(21) - 1000 B28(21) + 1000 B244(2) + I263(21) - I283(23)
   >= -1992
 c361: - 1000 B10(21) - 1000 B28(21) - 1000 B245(2) - I265(21) + I283(23)
   >= -2995
 c362: - 1000 B10(21) - 1000 B28(21) + 1000 B245(2) + I265(21) - I283(23)
   >= -1994
 c363: - 1000 B16(21) - 1000 B28(21) - 1000 B248(2) - I271(22) + I283(23)
   >= -2992
 c364: - 1000 B16(21) - 1000 B28(21) + 1000 B248(2) + I271(22) - I283(23)
   >= -1992
 c365: - 1000 B22(25) - 1000 B29(25) - 1000 B251(2) - I277(27) + I284(27)
   >= -2993
 c366: - 1000 B22(25) - 1000 B29(25) + 1000 B251(2) + I277(27) - I284(27)
   >= -1996
 c367: - 1000 B25(25) - 1000 B29(25) - 1000 B252(2) - I280(28) + I284(27)
   >= -2995
 c368: - 1000 B25(25) - 1000 B29(25) + 1000 B252(2) + I280(28) - I284(27)
   >= -1997
 c369: I255(21) >= 0
 c370: - 3 B0(20) + I255(21) >= 0
 c371: I256(37) >= 0
 c372: - 3 B1(36) + I256(37) >= 0
 c373: I257(23) >= 0
 c374: - 3 B2(21) + I257(23) >= 0
 c375: I258(27) >= 0
 c376: - 3 B3(25) + I258(27) >= 0
 c377: I259(25) >= 0
 c378: - 3 B4(25) + I259(25) >= 0
 c379: I260(37) >= 0
 c380: - 3 B5(37) + I260(37) >= 0
 c381: I261(25) >= 0
 c382: - 3 B6(25) + I261(25) >= 0
 c383: I262(37) >= 0
 c384: - 3 B7(37) + I262(37) >= 0
 c385: I263(21) >= 0
 c386: - 3 B8(21) + I263(21) >= 0
 c387: I264(21) >= 0
 c388: - 3 B9(21) + I264(21) >= 0
 c389: I265(21) >= 0
 c390: - 3 B10(21) + I265(21) >= 0
 c391: I266(21) >= 0
 c392: - 3 B11(21) + I266(21) >= 0
 c393: I267(37) >= 0
 c394: - 3 B12(37) + I267(37) >= 0
 c395: I268(21) >= 0
 c396: - 3 B13(21) + I268(21) >= 0
 c397: I269(24) >= 0
 c398: - 3 B14(21) + I269(24) >= 0
 c399: I270(40) >= 0
 c400: - 3 B15(37) + I270(40) >= 0
 c401: I271(22) >= 0
 c402: - 3 B16(21) + I271(22) >= 0
 c403: I272(22) >= 0
 c404: - 3 B17(21) + I272(22) >= 0
 c405: I273(37) >= 0
 c406: - 3 B18(37) + I273(37) >= 0
 c407: I274(21) >= 0
 c408: - 3 B19(21) + I274(21) >= 0
 c409: I275(21) >= 0
 c410: - 3 B20(21) + I275(21) >= 0
 c411: I276(37) >= 0
 c412: - 3 B21(37) + I276(37) >= 0
 c413: I277(27) >= 0
 c414: - 3 B22(25) + I277(27) >= 0
 c415: I278(23) >= 0
 c416: - 3 B23(21) + I278(23) >= 0
 c417: I279(40) >= 0
 c418: - 3 B24(37) + I279(40) >= 0
 c419: I280(28) >= 0
 c420: - 3 B25(25) + I280(28) >= 0
 c421: I281(37) >= 0
 c422: - 3 B26(37) + I281(37) >= 0
 c423: I282(21) >= 0
 c424: - 3 B27(21) + I282(21) >= 0
 c425: I283(23) >= 0
 c426: - 3 B28(21) + I283(23) >= 0
 c427: I284(27) >= 0
 c428: - 3 B29(25) + I284(27) >= 0
 c429: - 2 B2(21) - 2 B3(25) - I257(23) - I258(27) + I269(24) + I270(40)
   >= 0
 c430: - 2 B4(25) - 5 B5(37) - I259(25) - I260(37) + I279(40) + I280(28)
   >= 0
 c431: - 2 B6(25) - 5 B7(37) - I261(25) - I262(37) + I283(23) + I284(27)
   >= 0
 c432: - 4 B8(21) - 3 B9(21) - I263(21) - I264(21) + I269(24) + I270(40)
   >= 0
 c433: - 4 B10(21) - 2 B11(21) - I265(21) - I266(21) + I269(24) + I270(40)
   >= 0
 c434: - 3 B12(37) - 3 B13(21) - I267(37) - I268(21) + I279(40) + I280(28)
   >= 0
 c435: - 3 B14(21) - 3 B15(37) - I269(24) - I270(40) + I271(22) + I272(22)
   >= 0
 c436: - 5 B16(21) - 2 B17(21) - I271(22) - I272(22) + I283(23) + I284(27)
   >= 0
 c437: - 2 B18(37) - 4 B19(21) - I273(37) - I274(21) + I277(27) + I278(23)
   >= 0
 c438: - 5 B20(21) - 2 B21(37) - I275(21) - I276(37) + I279(40) + I280(28)
   >= 0
 c439: - 4 B22(25) - 4 B23(21) + I257(23) + I258(27) - I277(27) - I278(23)
   >= 0
 c440: - 2 B24(37) - 4 B25(25) + I257(23) + I258(27) - I279(40) - I280(28)
   >= 0
 c441: - 3 B26(37) - 4 B27(21) + I277(27) + I278(23) - I281(37) - I282(21)
   >= 0
 c442: - 5 B28(21) - 2 B29(25) + I255(21) + I256(37) - I283(23) - I284(27)
   >= 0
 c443: - 5 B0(20) - 4 B1(36) - 2 B2(21) - 2 B3(25) - 2 B4(25) - 5 B5(37)
   - 2 B6(25) - 5 B7(37) - 4 B8(21) - 3 B9(21) - 4 B10(21) - 2 B11(21)
   - 3 B12(37) - 3 B13(21) - 3 B14(21) - 3 B15(37) - 5 B16(21) - 2 B17(21)
   - 2 B18(37) - 4 B19(21) - 5 B20(21) - 2 B21(37) - 4 B22(25) - 4 B23(21)
   - 2 B24(37) - 4 B25(25) - 3 B26(37) - 4 B27(21) - 5 B28(21) - 2 B29(25)
   - I255(21) - I256(37) - I257(23) - I258(27) - I259(25) - I260(37)
   - I261(25) - I262(37) - I263(21) - I264(21) - I265(21) - I266(21)
   - I267(37) - I268(21) - I269(24) - I270(40) - I271(22) - I272(22)
   - I273(37) - I274(21) - I275(21) - I276(37) - I277(27) - I278(23)
   - I279(40) - I280(28) - I281(37) - I282(21) - I283(23) - I284(27)
   + I285(1) >= 0
Bounds
Binaries
 B0(20) B1(36) B2(21) B3(25) B4(25) B5(37) B6(25) B7(37) B8(21) B9(21)
 B10(21) B11(21) B12(37) B13(21) B14(21) B15(37) B16(21) B17(21) B18(37)
 B19(21) B20(21) B21(37) B22(25) B23(21) B24(37) B25(25) B26(37) B27(21)
 B28(21) B29(25) B30(0) B31(0) B32(2) B33(2) B34(0) B35(0) B36(2) B37(4)
 B38(0) B39(4) B40(4) B41(2) B42(2) B43(2) B44(0) B45(0) B46(0) B47(2)
 B48(2) B49(2) B50(2) B51(0) B52(0) B53(2) B54(0) B55(0) B56(2) B57(2)
 B58(0) B59(4) B60(2) B61(2) B62(0) B63(4) B64(0) B65(0) B66(2) B67(2)
 B68(0) B69(2) B70(2) B71(2) B72(4) B73(2) B74(2) B75(2) B76(2) B77(4)
 B78(0) B79(0) B80(0) B81(2) B82(2) B83(0) B84(2) B85(2) B86(2) B87(4)
 B88(2) B89(2) B90(0) B91(2) B92(0) B93(0) B94(0) B95(4) B96(2) B97(0)
 B98(4) B99(0) B100(0) B101(0) B102(0) B103(2) B104(2) B105(0) B106(2)
 B107(0) B108(0) B109(4) B110(0) B111(2) B112(0) B113(4) B114(0) B115(0)
 B116(0) B117(0) B118(2) B119(2) B120(2) B121(0) B122(2) B123(2) B124(2)
 B125(2) B126(0) B127(2) B128(2) B129(2) B130(2) B131(0) B132(2) B133(4)
 B134(0) B135(4) B136(0) B137(2) B138(2) B139(0) B140(0) B141(2) B142(0)
 B143(0) B144(4) B145(4) B146(2) B147(2) B148(2) B149(0) B150(0) B151(2)
 B152(0) B153(0) B154(4) B155(4) B156(2) B157(0) B158(0) B159(0) B160(0)
 B161(0) B162(0) B163(2) B164(2) B165(4) B166(0) B167(2) B168(2) B169(0)
 B170(0) B171(2) B172(4) B173(0) B174(0) B175(4) B176(2) B177(2) B178(2)
 B179(0) B180(4) B181(0) B182(2) B183(2) B184(0) B185(0) B186(2) B187(4)
 B188(0) B189(4) B190(0) B191(2) B192(2) B193(2) B194(0) B195(2) B196(2)
 B197(2) B198(2) B199(0) B200(0) B201(0) B202(2) B203(0) B204(2) B205(2)
 B206(0) B207(2) B208(0) B209(2) B210(2) B211(2) B212(4) B213(4) B214(0)
 B215(0) B216(2) B217(2) B218(0) B219(2) B220(2) B221(2) B222(0) B223(2)
 B224(2) B225(2) B226(0) B227(2) B228(2) B229(2) B230(2) B231(4) B232(2)
 B233(2) B234(2) B235(2) B236(0) B237(2) B238(0) B239(0) B240(0) B241(4)
 B242(2) B243(2) B244(2) B245(2) B246(0) B247(0) B248(2) B249(0) B250(0)
 B251(2) B252(2) B253(0) B254(0)
Generals
 I255(21) I256(37) I257(23) I258(27) I259(25) I260(37) I261(25) I262(37)
 I263(21) I264(21) I265(21) I266(21) I267(37) I268(21) I269(24) I270(40)
 I271(22) I272(22) I273(37) I274(21) I275(21) I276(37) I277(27) I278(23)
 I279(40) I280(28) I281(37) I282(21) I283(23) I284(27) I285(1)
End
